72
120
96	6
95	2
94	3
93	2
92	1
91	2
90	1
89	4
88	1
87	1
86	3
85	3
84	4
83	3
82	5
81	4
80	2
79	4
78	1
77	6
76	3
75	3
74	2
73	7
72	4
71	3
70	1
69	3
68	2
67	2
66	2
65	2
64	6
63	3
62	2
61	1
60	4
59	4
58	2
57	1
56	4
55	2
54	1
53	4
52	1
51	3
50	3
49	3
48	3
47	4
46	2
45	2
44	2
43	1
42	1
41	1
40	4
39	5
38	1
37	3
36	4
35	3
34	4
33	5
32	3
31	1
30	6
29	1
27	1
26	1
25	2
24	4
